<number of tasks>
50

<cycle time>
1000

<order strength>
0.596


<task times>
1 202
2 143
3 269
4 91
5 126
6 268
7 103
8 48
9 134
10 166
11 159
12 193
13 73
14 105
15 120
16 167
17 59
18 42
19 154
20 196
21 133
22 100
23 66
24 140
25 101
26 165
27 28
28 224
29 112
30 176
31 36
32 116
33 197
34 88
35 230
36 159
37 161
38 121
39 107
40 71
41 267
42 69
43 86
44 88
45 249
46 65
47 86
48 299
49 73
50 199

<precedence relations>
1,27
2,27
3,25
4,5
4,6
4,7
4,8
4,9
5,15
6,15
7,25
8,14
8,17
9,10
9,11
9,12
9,13
9,14
10,15
11,15
12,27
13,16
13,17
13,18
13,19
13,34
14,15
14,16
15,20
15,21
15,22
15,23
15,24
16,25
17,25
18,26
19,39
19,40
20,27
21,27
21,34
22,27
22,34
23,27
23,34
24,27
25,27
25,28
25,29
25,30
25,31
25,32
25,33
26,27
27,35
27,36
27,37
27,38
27,39
27,40
28,39
28,40
29,39
29,40
30,49
31,47
31,49
32,50
34,40
35,41
35,42
35,45
36,46
37,42
38,41
38,45
39,41
39,43
40,41
40,42
41,46
41,47
42,44
42,46
42,47
43,44
43,45
43,49
44,48
46,48
46,49
47,50
48,50
49,50

<end>
